; benchmark generated from python API
(set-info :status unknown)
(declare-fun x_months () (_ BitVec 32))
(declare-fun x_beta () (_ BitVec 32))
(declare-fun y_months () (_ BitVec 32))
(declare-fun y_beta () (_ BitVec 32))
(assert
 (bvsle (_ bv4294966096 32) x_months))
(assert
 (bvsge (_ bv1199 32) x_months))
(assert
 (let ((?x37561 (bvsmod x_months (_ bv48 32))))
 (let ((?x13 ((as const (Array (_ BitVec 32) (_ BitVec 32))) (_ bv0 32))))
 (let ((?x15 (store ?x13 (_ bv0 32) (_ bv31 32))))
 (let ((?x18 (store ?x15 (_ bv1 32) (_ bv30 32))))
 (let ((?x20 (store ?x18 (_ bv2 32) (_ bv31 32))))
 (let ((?x22 (store ?x20 (_ bv3 32) (_ bv30 32))))
 (let ((?x24 (store ?x22 (_ bv4 32) (_ bv31 32))))
 (let ((?x26 (store ?x24 (_ bv5 32) (_ bv31 32))))
 (let ((?x28 (store ?x26 (_ bv6 32) (_ bv30 32))))
 (let ((?x30 (store ?x28 (_ bv7 32) (_ bv31 32))))
 (let ((?x32 (store ?x30 (_ bv8 32) (_ bv30 32))))
 (let ((?x34 (store ?x32 (_ bv9 32) (_ bv31 32))))
 (let ((?x36 (store ?x34 (_ bv10 32) (_ bv31 32))))
 (let ((?x39 (store ?x36 (_ bv11 32) (_ bv28 32))))
 (let ((?x41 (store ?x39 (_ bv12 32) (_ bv31 32))))
 (let ((?x43 (store ?x41 (_ bv13 32) (_ bv30 32))))
 (let ((?x45 (store ?x43 (_ bv14 32) (_ bv31 32))))
 (let ((?x47 (store ?x45 (_ bv15 32) (_ bv30 32))))
 (let ((?x49 (store ?x47 (_ bv16 32) (_ bv31 32))))
 (let ((?x51 (store ?x49 (_ bv17 32) (_ bv31 32))))
 (let ((?x53 (store ?x51 (_ bv18 32) (_ bv30 32))))
 (let ((?x55 (store ?x53 (_ bv19 32) (_ bv31 32))))
 (let ((?x57 (store ?x55 (_ bv20 32) (_ bv30 32))))
 (let ((?x59 (store ?x57 (_ bv21 32) (_ bv31 32))))
 (let ((?x61 (store ?x59 (_ bv22 32) (_ bv31 32))))
 (let ((?x63 (store ?x61 (_ bv23 32) (_ bv28 32))))
 (let ((?x65 (store ?x63 (_ bv24 32) (_ bv31 32))))
 (let ((?x67 (store ?x65 (_ bv25 32) (_ bv30 32))))
 (let ((?x69 (store ?x67 (_ bv26 32) (_ bv31 32))))
 (let ((?x71 (store ?x69 (_ bv27 32) (_ bv30 32))))
 (let ((?x72 (store ?x71 (_ bv28 32) (_ bv31 32))))
 (let ((?x74 (store ?x72 (_ bv29 32) (_ bv31 32))))
 (let ((?x75 (store ?x74 (_ bv30 32) (_ bv30 32))))
 (let ((?x76 (store ?x75 (_ bv31 32) (_ bv31 32))))
 (let ((?x78 (store ?x76 (_ bv32 32) (_ bv30 32))))
 (let ((?x80 (store ?x78 (_ bv33 32) (_ bv31 32))))
 (let ((?x82 (store ?x80 (_ bv34 32) (_ bv31 32))))
 (let ((?x84 (store ?x82 (_ bv35 32) (_ bv28 32))))
 (let ((?x86 (store ?x84 (_ bv36 32) (_ bv31 32))))
 (let ((?x88 (store ?x86 (_ bv37 32) (_ bv30 32))))
 (let ((?x90 (store ?x88 (_ bv38 32) (_ bv31 32))))
 (let ((?x92 (store ?x90 (_ bv39 32) (_ bv30 32))))
 (let ((?x94 (store ?x92 (_ bv40 32) (_ bv31 32))))
 (let ((?x96 (store ?x94 (_ bv41 32) (_ bv31 32))))
 (let ((?x98 (store ?x96 (_ bv42 32) (_ bv30 32))))
 (let ((?x100 (store ?x98 (_ bv43 32) (_ bv31 32))))
 (let ((?x102 (store ?x100 (_ bv44 32) (_ bv30 32))))
 (let ((?x104 (store ?x102 (_ bv45 32) (_ bv31 32))))
 (let ((?x106 (store ?x104 (_ bv46 32) (_ bv31 32))))
 (let ((?x108 (store ?x106 (_ bv47 32) (_ bv29 32))))
 (let (($x17281 (or (= (_ bv22802 32) (bvadd x_months (_ bv24003 32))) (= (_ bv25202 32) (bvadd x_months (_ bv24003 32))))))
 (let ((?x6660 (ite $x17281 (_ bv28 32) (select ?x108 ?x37561))))
 (let (($x81925 (bvsle (_ bv0 32) x_beta)))
 (and $x81925 (bvslt x_beta ?x6660))))))))))))))))))))))))))))))))))))))))))))))))))))))))
(assert
 (bvsle (_ bv4294966096 32) y_months))
(assert
 (bvsge (_ bv1199 32) y_months))
(assert
 (let ((?x27184 (bvsmod y_months (_ bv48 32))))
 (let ((?x13 ((as const (Array (_ BitVec 32) (_ BitVec 32))) (_ bv0 32))))
 (let ((?x15 (store ?x13 (_ bv0 32) (_ bv31 32))))
 (let ((?x18 (store ?x15 (_ bv1 32) (_ bv30 32))))
 (let ((?x20 (store ?x18 (_ bv2 32) (_ bv31 32))))
 (let ((?x22 (store ?x20 (_ bv3 32) (_ bv30 32))))
 (let ((?x24 (store ?x22 (_ bv4 32) (_ bv31 32))))
 (let ((?x26 (store ?x24 (_ bv5 32) (_ bv31 32))))
 (let ((?x28 (store ?x26 (_ bv6 32) (_ bv30 32))))
 (let ((?x30 (store ?x28 (_ bv7 32) (_ bv31 32))))
 (let ((?x32 (store ?x30 (_ bv8 32) (_ bv30 32))))
 (let ((?x34 (store ?x32 (_ bv9 32) (_ bv31 32))))
 (let ((?x36 (store ?x34 (_ bv10 32) (_ bv31 32))))
 (let ((?x39 (store ?x36 (_ bv11 32) (_ bv28 32))))
 (let ((?x41 (store ?x39 (_ bv12 32) (_ bv31 32))))
 (let ((?x43 (store ?x41 (_ bv13 32) (_ bv30 32))))
 (let ((?x45 (store ?x43 (_ bv14 32) (_ bv31 32))))
 (let ((?x47 (store ?x45 (_ bv15 32) (_ bv30 32))))
 (let ((?x49 (store ?x47 (_ bv16 32) (_ bv31 32))))
 (let ((?x51 (store ?x49 (_ bv17 32) (_ bv31 32))))
 (let ((?x53 (store ?x51 (_ bv18 32) (_ bv30 32))))
 (let ((?x55 (store ?x53 (_ bv19 32) (_ bv31 32))))
 (let ((?x57 (store ?x55 (_ bv20 32) (_ bv30 32))))
 (let ((?x59 (store ?x57 (_ bv21 32) (_ bv31 32))))
 (let ((?x61 (store ?x59 (_ bv22 32) (_ bv31 32))))
 (let ((?x63 (store ?x61 (_ bv23 32) (_ bv28 32))))
 (let ((?x65 (store ?x63 (_ bv24 32) (_ bv31 32))))
 (let ((?x67 (store ?x65 (_ bv25 32) (_ bv30 32))))
 (let ((?x69 (store ?x67 (_ bv26 32) (_ bv31 32))))
 (let ((?x71 (store ?x69 (_ bv27 32) (_ bv30 32))))
 (let ((?x72 (store ?x71 (_ bv28 32) (_ bv31 32))))
 (let ((?x74 (store ?x72 (_ bv29 32) (_ bv31 32))))
 (let ((?x75 (store ?x74 (_ bv30 32) (_ bv30 32))))
 (let ((?x76 (store ?x75 (_ bv31 32) (_ bv31 32))))
 (let ((?x78 (store ?x76 (_ bv32 32) (_ bv30 32))))
 (let ((?x80 (store ?x78 (_ bv33 32) (_ bv31 32))))
 (let ((?x82 (store ?x80 (_ bv34 32) (_ bv31 32))))
 (let ((?x84 (store ?x82 (_ bv35 32) (_ bv28 32))))
 (let ((?x86 (store ?x84 (_ bv36 32) (_ bv31 32))))
 (let ((?x88 (store ?x86 (_ bv37 32) (_ bv30 32))))
 (let ((?x90 (store ?x88 (_ bv38 32) (_ bv31 32))))
 (let ((?x92 (store ?x90 (_ bv39 32) (_ bv30 32))))
 (let ((?x94 (store ?x92 (_ bv40 32) (_ bv31 32))))
 (let ((?x96 (store ?x94 (_ bv41 32) (_ bv31 32))))
 (let ((?x98 (store ?x96 (_ bv42 32) (_ bv30 32))))
 (let ((?x100 (store ?x98 (_ bv43 32) (_ bv31 32))))
 (let ((?x102 (store ?x100 (_ bv44 32) (_ bv30 32))))
 (let ((?x104 (store ?x102 (_ bv45 32) (_ bv31 32))))
 (let ((?x106 (store ?x104 (_ bv46 32) (_ bv31 32))))
 (let ((?x108 (store ?x106 (_ bv47 32) (_ bv29 32))))
 (let (($x66896 (or (= (_ bv22802 32) (bvadd y_months (_ bv24003 32))) (= (_ bv25202 32) (bvadd y_months (_ bv24003 32))))))
 (let ((?x26786 (ite $x66896 (_ bv28 32) (select ?x108 ?x27184))))
 (let (($x61815 (bvsle (_ bv0 32) y_beta)))
 (and $x61815 (bvslt y_beta ?x26786))))))))))))))))))))))))))))))))))))))))))))))))))))))))
(assert
 (and (= x_months (bvsub (bvadd (bvmul (_ bv2022 32) (_ bv12 32)) (_ bv1 32)) (_ bv24003 32))) (= (_ bv14 32) x_beta)))
(assert
 (let ((?x20909 (bvadd x_months (_ bv13 32))))
 (let ((?x58159 (bvsmod ?x20909 (_ bv48 32))))
 (let ((?x20538 (ite (bvsgt (_ bv22803 32) (bvadd ?x20909 (_ bv24003 32))) (_ bv1 32) (ite (bvsle (_ bv25203 32) (bvadd ?x20909 (_ bv24003 32))) (_ bv4294967295 32) (_ bv0 32)))))
 (let ((?x13 ((as const (Array (_ BitVec 32) (_ BitVec 32))) (_ bv0 32))))
 (let ((?x15 (store ?x13 (_ bv0 32) (_ bv31 32))))
 (let ((?x18 (store ?x15 (_ bv1 32) (_ bv30 32))))
 (let ((?x20 (store ?x18 (_ bv2 32) (_ bv31 32))))
 (let ((?x22 (store ?x20 (_ bv3 32) (_ bv30 32))))
 (let ((?x24 (store ?x22 (_ bv4 32) (_ bv31 32))))
 (let ((?x26 (store ?x24 (_ bv5 32) (_ bv31 32))))
 (let ((?x28 (store ?x26 (_ bv6 32) (_ bv30 32))))
 (let ((?x30 (store ?x28 (_ bv7 32) (_ bv31 32))))
 (let ((?x32 (store ?x30 (_ bv8 32) (_ bv30 32))))
 (let ((?x34 (store ?x32 (_ bv9 32) (_ bv31 32))))
 (let ((?x36 (store ?x34 (_ bv10 32) (_ bv31 32))))
 (let ((?x39 (store ?x36 (_ bv11 32) (_ bv28 32))))
 (let ((?x41 (store ?x39 (_ bv12 32) (_ bv31 32))))
 (let ((?x43 (store ?x41 (_ bv13 32) (_ bv30 32))))
 (let ((?x45 (store ?x43 (_ bv14 32) (_ bv31 32))))
 (let ((?x47 (store ?x45 (_ bv15 32) (_ bv30 32))))
 (let ((?x49 (store ?x47 (_ bv16 32) (_ bv31 32))))
 (let ((?x51 (store ?x49 (_ bv17 32) (_ bv31 32))))
 (let ((?x53 (store ?x51 (_ bv18 32) (_ bv30 32))))
 (let ((?x55 (store ?x53 (_ bv19 32) (_ bv31 32))))
 (let ((?x57 (store ?x55 (_ bv20 32) (_ bv30 32))))
 (let ((?x59 (store ?x57 (_ bv21 32) (_ bv31 32))))
 (let ((?x61 (store ?x59 (_ bv22 32) (_ bv31 32))))
 (let ((?x63 (store ?x61 (_ bv23 32) (_ bv28 32))))
 (let ((?x65 (store ?x63 (_ bv24 32) (_ bv31 32))))
 (let ((?x67 (store ?x65 (_ bv25 32) (_ bv30 32))))
 (let ((?x69 (store ?x67 (_ bv26 32) (_ bv31 32))))
 (let ((?x71 (store ?x69 (_ bv27 32) (_ bv30 32))))
 (let ((?x72 (store ?x71 (_ bv28 32) (_ bv31 32))))
 (let ((?x74 (store ?x72 (_ bv29 32) (_ bv31 32))))
 (let ((?x75 (store ?x74 (_ bv30 32) (_ bv30 32))))
 (let ((?x76 (store ?x75 (_ bv31 32) (_ bv31 32))))
 (let ((?x78 (store ?x76 (_ bv32 32) (_ bv30 32))))
 (let ((?x80 (store ?x78 (_ bv33 32) (_ bv31 32))))
 (let ((?x82 (store ?x80 (_ bv34 32) (_ bv31 32))))
 (let ((?x84 (store ?x82 (_ bv35 32) (_ bv28 32))))
 (let ((?x86 (store ?x84 (_ bv36 32) (_ bv31 32))))
 (let ((?x88 (store ?x86 (_ bv37 32) (_ bv30 32))))
 (let ((?x90 (store ?x88 (_ bv38 32) (_ bv31 32))))
 (let ((?x92 (store ?x90 (_ bv39 32) (_ bv30 32))))
 (let ((?x94 (store ?x92 (_ bv40 32) (_ bv31 32))))
 (let ((?x96 (store ?x94 (_ bv41 32) (_ bv31 32))))
 (let ((?x98 (store ?x96 (_ bv42 32) (_ bv30 32))))
 (let ((?x100 (store ?x98 (_ bv43 32) (_ bv31 32))))
 (let ((?x102 (store ?x100 (_ bv44 32) (_ bv30 32))))
 (let ((?x104 (store ?x102 (_ bv45 32) (_ bv31 32))))
 (let ((?x106 (store ?x104 (_ bv46 32) (_ bv31 32))))
 (let ((?x108 (store ?x106 (_ bv47 32) (_ bv29 32))))
 (let ((?x38442 (ite (or (= (_ bv22802 32) (bvadd ?x20909 (_ bv24003 32))) (= (_ bv25202 32) (bvadd ?x20909 (_ bv24003 32)))) (_ bv28 32) (select ?x108 ?x58159))))
 (let ((?x75898 (bvsub ?x38442 (_ bv1 32))))
 (let ((?x3858 (ite (bvsgt (_ bv0 32) x_beta) (_ bv0 32) (ite (bvsgt x_beta ?x75898) ?x75898 x_beta))))
 (let ((?x114 (store (store (store (store ?x13 (_ bv0 32) (_ bv0 32)) (_ bv1 32) (_ bv31 32)) (_ bv2 32) (_ bv61 32)) (_ bv3 32) (_ bv92 32))))
 (let ((?x122 (store (store (store (store ?x114 (_ bv4 32) (_ bv122 32)) (_ bv5 32) (_ bv153 32)) (_ bv6 32) (_ bv184 32)) (_ bv7 32) (_ bv214 32))))
 (let ((?x130 (store (store (store (store ?x122 (_ bv8 32) (_ bv245 32)) (_ bv9 32) (_ bv275 32)) (_ bv10 32) (_ bv306 32)) (_ bv11 32) (_ bv337 32))))
 (let ((?x138 (store (store (store (store ?x130 (_ bv12 32) (_ bv365 32)) (_ bv13 32) (_ bv396 32)) (_ bv14 32) (_ bv426 32)) (_ bv15 32) (_ bv457 32))))
 (let ((?x146 (store (store (store (store ?x138 (_ bv16 32) (_ bv487 32)) (_ bv17 32) (_ bv518 32)) (_ bv18 32) (_ bv549 32)) (_ bv19 32) (_ bv579 32))))
 (let ((?x154 (store (store (store (store ?x146 (_ bv20 32) (_ bv610 32)) (_ bv21 32) (_ bv640 32)) (_ bv22 32) (_ bv671 32)) (_ bv23 32) (_ bv702 32))))
 (let ((?x162 (store (store (store (store ?x154 (_ bv24 32) (_ bv730 32)) (_ bv25 32) (_ bv761 32)) (_ bv26 32) (_ bv791 32)) (_ bv27 32) (_ bv822 32))))
 (let ((?x170 (store (store (store (store ?x162 (_ bv28 32) (_ bv852 32)) (_ bv29 32) (_ bv883 32)) (_ bv30 32) (_ bv914 32)) (_ bv31 32) (_ bv944 32))))
 (let ((?x178 (store (store (store (store ?x170 (_ bv32 32) (_ bv975 32)) (_ bv33 32) (_ bv1005 32)) (_ bv34 32) (_ bv1036 32)) (_ bv35 32) (_ bv1067 32))))
 (let ((?x186 (store (store (store (store ?x178 (_ bv36 32) (_ bv1095 32)) (_ bv37 32) (_ bv1126 32)) (_ bv38 32) (_ bv1156 32)) (_ bv39 32) (_ bv1187 32))))
 (let ((?x194 (store (store (store (store ?x186 (_ bv40 32) (_ bv1217 32)) (_ bv41 32) (_ bv1248 32)) (_ bv42 32) (_ bv1279 32)) (_ bv43 32) (_ bv1309 32))))
 (let ((?x202 (store (store (store (store ?x194 (_ bv44 32) (_ bv1340 32)) (_ bv45 32) (_ bv1370 32)) (_ bv46 32) (_ bv1401 32)) (_ bv47 32) (_ bv1432 32))))
 (let ((?x82282 (bvadd (bvadd (bvadd (select ?x202 ?x58159) ?x3858) ?x20538) (_ bv40 32))))
 (let ((?x24560 (ite (bvuge ?x82282 (_ bv2147483648 32)) (bvsub ?x82282 (_ bv0 32)) ?x82282)))
 (let ((?x35901 (bvsdiv ?x24560 (_ bv1461 32))))
 (let ((?x46949 (ite (and (bvuge ?x24560 (_ bv2147483648 32)) (and (distinct (_ bv0 32) (bvsmod ?x24560 (_ bv1461 32))) true)) (bvsub ?x35901 (_ bv1 32)) ?x35901)))
 (let ((?x66968 (bvadd ?x20909 (bvmul ?x46949 (_ bv48 32)))))
 (let ((?x77306 (bvadd (bvadd ?x66968 (bvsub (_ bv1 32) ?x58159)) (_ bv24003 32))))
 (let ((?x19803 (bvadd (select ?x202 (_ bv1 32)) (ite (bvsgt (_ bv22803 32) ?x77306) (_ bv1 32) (ite (bvsle (_ bv25203 32) ?x77306) (_ bv4294967295 32) (_ bv0 32))))))
 (let ((?x4532 (bvsmod ?x82282 (_ bv1461 32))))
 (let ((?x43810 (ite (bvsle (_ bv25203 32) (bvadd (bvadd ?x66968 (bvsub (_ bv2 32) ?x58159)) (_ bv24003 32))) (_ bv4294967295 32) (_ bv0 32))))
 (let ((?x20275 (ite (bvsgt (_ bv22803 32) (bvadd (bvadd ?x66968 (bvsub (_ bv2 32) ?x58159)) (_ bv24003 32))) (_ bv1 32) ?x43810)))
 (let ((?x34257 (ite (bvsge ?x4532 (bvadd (select ?x202 (_ bv2 32)) ?x20275)) (_ bv2 32) (ite (bvsge ?x4532 ?x19803) (_ bv1 32) (_ bv0 32)))))
 (let ((?x40009 (ite (bvsle (_ bv25203 32) (bvadd (bvadd ?x66968 (bvsub (_ bv3 32) ?x58159)) (_ bv24003 32))) (_ bv4294967295 32) (_ bv0 32))))
 (let ((?x29040 (ite (bvsgt (_ bv22803 32) (bvadd (bvadd ?x66968 (bvsub (_ bv3 32) ?x58159)) (_ bv24003 32))) (_ bv1 32) ?x40009)))
 (let ((?x49305 (ite (bvsle (_ bv25203 32) (bvadd (bvadd ?x66968 (bvsub (_ bv4 32) ?x58159)) (_ bv24003 32))) (_ bv4294967295 32) (_ bv0 32))))
 (let ((?x24555 (ite (bvsgt (_ bv22803 32) (bvadd (bvadd ?x66968 (bvsub (_ bv4 32) ?x58159)) (_ bv24003 32))) (_ bv1 32) ?x49305)))
 (let ((?x35482 (ite (bvsge ?x4532 (bvadd (select ?x202 (_ bv4 32)) ?x24555)) (_ bv4 32) (ite (bvsge ?x4532 (bvadd (select ?x202 (_ bv3 32)) ?x29040)) (_ bv3 32) ?x34257))))
 (let ((?x59781 (ite (bvsle (_ bv25203 32) (bvadd (bvadd ?x66968 (bvsub (_ bv5 32) ?x58159)) (_ bv24003 32))) (_ bv4294967295 32) (_ bv0 32))))
 (let ((?x33300 (ite (bvsgt (_ bv22803 32) (bvadd (bvadd ?x66968 (bvsub (_ bv5 32) ?x58159)) (_ bv24003 32))) (_ bv1 32) ?x59781)))
 (let ((?x34861 (ite (bvsle (_ bv25203 32) (bvadd (bvadd ?x66968 (bvsub (_ bv6 32) ?x58159)) (_ bv24003 32))) (_ bv4294967295 32) (_ bv0 32))))
 (let ((?x18153 (ite (bvsgt (_ bv22803 32) (bvadd (bvadd ?x66968 (bvsub (_ bv6 32) ?x58159)) (_ bv24003 32))) (_ bv1 32) ?x34861)))
 (let ((?x63763 (ite (bvsge ?x4532 (bvadd (select ?x202 (_ bv6 32)) ?x18153)) (_ bv6 32) (ite (bvsge ?x4532 (bvadd (select ?x202 (_ bv5 32)) ?x33300)) (_ bv5 32) ?x35482))))
 (let ((?x43782 (ite (bvsle (_ bv25203 32) (bvadd (bvadd ?x66968 (bvsub (_ bv7 32) ?x58159)) (_ bv24003 32))) (_ bv4294967295 32) (_ bv0 32))))
 (let ((?x45232 (ite (bvsgt (_ bv22803 32) (bvadd (bvadd ?x66968 (bvsub (_ bv7 32) ?x58159)) (_ bv24003 32))) (_ bv1 32) ?x43782)))
 (let ((?x16549 (ite (bvsle (_ bv25203 32) (bvadd (bvadd ?x66968 (bvsub (_ bv8 32) ?x58159)) (_ bv24003 32))) (_ bv4294967295 32) (_ bv0 32))))
 (let ((?x70068 (ite (bvsgt (_ bv22803 32) (bvadd (bvadd ?x66968 (bvsub (_ bv8 32) ?x58159)) (_ bv24003 32))) (_ bv1 32) ?x16549)))
 (let ((?x60334 (ite (bvsge ?x4532 (bvadd (select ?x202 (_ bv8 32)) ?x70068)) (_ bv8 32) (ite (bvsge ?x4532 (bvadd (select ?x202 (_ bv7 32)) ?x45232)) (_ bv7 32) ?x63763))))
 (let ((?x28417 (ite (bvsle (_ bv25203 32) (bvadd (bvadd ?x66968 (bvsub (_ bv9 32) ?x58159)) (_ bv24003 32))) (_ bv4294967295 32) (_ bv0 32))))
 (let ((?x49270 (ite (bvsgt (_ bv22803 32) (bvadd (bvadd ?x66968 (bvsub (_ bv9 32) ?x58159)) (_ bv24003 32))) (_ bv1 32) ?x28417)))
 (let ((?x42377 (ite (bvsle (_ bv25203 32) (bvadd (bvadd ?x66968 (bvsub (_ bv10 32) ?x58159)) (_ bv24003 32))) (_ bv4294967295 32) (_ bv0 32))))
 (let ((?x21807 (ite (bvsgt (_ bv22803 32) (bvadd (bvadd ?x66968 (bvsub (_ bv10 32) ?x58159)) (_ bv24003 32))) (_ bv1 32) ?x42377)))
 (let ((?x34920 (ite (bvsge ?x4532 (bvadd (select ?x202 (_ bv10 32)) ?x21807)) (_ bv10 32) (ite (bvsge ?x4532 (bvadd (select ?x202 (_ bv9 32)) ?x49270)) (_ bv9 32) ?x60334))))
 (let ((?x30441 (ite (bvsle (_ bv25203 32) (bvadd (bvadd ?x66968 (bvsub (_ bv11 32) ?x58159)) (_ bv24003 32))) (_ bv4294967295 32) (_ bv0 32))))
 (let ((?x88263 (ite (bvsgt (_ bv22803 32) (bvadd (bvadd ?x66968 (bvsub (_ bv11 32) ?x58159)) (_ bv24003 32))) (_ bv1 32) ?x30441)))
 (let ((?x48410 (ite (bvsle (_ bv25203 32) (bvadd (bvadd ?x66968 (bvsub (_ bv12 32) ?x58159)) (_ bv24003 32))) (_ bv4294967295 32) (_ bv0 32))))
 (let ((?x35047 (ite (bvsgt (_ bv22803 32) (bvadd (bvadd ?x66968 (bvsub (_ bv12 32) ?x58159)) (_ bv24003 32))) (_ bv1 32) ?x48410)))
 (let ((?x22558 (ite (bvsge ?x4532 (bvadd (select ?x202 (_ bv12 32)) ?x35047)) (_ bv12 32) (ite (bvsge ?x4532 (bvadd (select ?x202 (_ bv11 32)) ?x88263)) (_ bv11 32) ?x34920))))
 (let ((?x87624 (ite (bvsle (_ bv25203 32) (bvadd (bvadd ?x66968 (bvsub (_ bv13 32) ?x58159)) (_ bv24003 32))) (_ bv4294967295 32) (_ bv0 32))))
 (let ((?x81971 (ite (bvsgt (_ bv22803 32) (bvadd (bvadd ?x66968 (bvsub (_ bv13 32) ?x58159)) (_ bv24003 32))) (_ bv1 32) ?x87624)))
 (let ((?x34994 (ite (bvsle (_ bv25203 32) (bvadd (bvadd ?x66968 (bvsub (_ bv14 32) ?x58159)) (_ bv24003 32))) (_ bv4294967295 32) (_ bv0 32))))
 (let ((?x33891 (ite (bvsgt (_ bv22803 32) (bvadd (bvadd ?x66968 (bvsub (_ bv14 32) ?x58159)) (_ bv24003 32))) (_ bv1 32) ?x34994)))
 (let ((?x58650 (ite (bvsge ?x4532 (bvadd (select ?x202 (_ bv14 32)) ?x33891)) (_ bv14 32) (ite (bvsge ?x4532 (bvadd (select ?x202 (_ bv13 32)) ?x81971)) (_ bv13 32) ?x22558))))
 (let ((?x62424 (ite (bvsle (_ bv25203 32) (bvadd (bvadd ?x66968 (bvsub (_ bv15 32) ?x58159)) (_ bv24003 32))) (_ bv4294967295 32) (_ bv0 32))))
 (let ((?x36347 (ite (bvsgt (_ bv22803 32) (bvadd (bvadd ?x66968 (bvsub (_ bv15 32) ?x58159)) (_ bv24003 32))) (_ bv1 32) ?x62424)))
 (let ((?x40347 (ite (bvsle (_ bv25203 32) (bvadd (bvadd ?x66968 (bvsub (_ bv16 32) ?x58159)) (_ bv24003 32))) (_ bv4294967295 32) (_ bv0 32))))
 (let ((?x30087 (ite (bvsgt (_ bv22803 32) (bvadd (bvadd ?x66968 (bvsub (_ bv16 32) ?x58159)) (_ bv24003 32))) (_ bv1 32) ?x40347)))
 (let ((?x69942 (ite (bvsge ?x4532 (bvadd (select ?x202 (_ bv16 32)) ?x30087)) (_ bv16 32) (ite (bvsge ?x4532 (bvadd (select ?x202 (_ bv15 32)) ?x36347)) (_ bv15 32) ?x58650))))
 (let ((?x66260 (ite (bvsle (_ bv25203 32) (bvadd (bvadd ?x66968 (bvsub (_ bv17 32) ?x58159)) (_ bv24003 32))) (_ bv4294967295 32) (_ bv0 32))))
 (let ((?x76027 (ite (bvsgt (_ bv22803 32) (bvadd (bvadd ?x66968 (bvsub (_ bv17 32) ?x58159)) (_ bv24003 32))) (_ bv1 32) ?x66260)))
 (let ((?x17533 (ite (bvsle (_ bv25203 32) (bvadd (bvadd ?x66968 (bvsub (_ bv18 32) ?x58159)) (_ bv24003 32))) (_ bv4294967295 32) (_ bv0 32))))
 (let ((?x35532 (ite (bvsgt (_ bv22803 32) (bvadd (bvadd ?x66968 (bvsub (_ bv18 32) ?x58159)) (_ bv24003 32))) (_ bv1 32) ?x17533)))
 (let ((?x34279 (ite (bvsge ?x4532 (bvadd (select ?x202 (_ bv18 32)) ?x35532)) (_ bv18 32) (ite (bvsge ?x4532 (bvadd (select ?x202 (_ bv17 32)) ?x76027)) (_ bv17 32) ?x69942))))
 (let ((?x9712 (ite (bvsle (_ bv25203 32) (bvadd (bvadd ?x66968 (bvsub (_ bv19 32) ?x58159)) (_ bv24003 32))) (_ bv4294967295 32) (_ bv0 32))))
 (let ((?x10883 (ite (bvsgt (_ bv22803 32) (bvadd (bvadd ?x66968 (bvsub (_ bv19 32) ?x58159)) (_ bv24003 32))) (_ bv1 32) ?x9712)))
 (let ((?x75643 (ite (bvsle (_ bv25203 32) (bvadd (bvadd ?x66968 (bvsub (_ bv20 32) ?x58159)) (_ bv24003 32))) (_ bv4294967295 32) (_ bv0 32))))
 (let ((?x14674 (ite (bvsgt (_ bv22803 32) (bvadd (bvadd ?x66968 (bvsub (_ bv20 32) ?x58159)) (_ bv24003 32))) (_ bv1 32) ?x75643)))
 (let ((?x45469 (ite (bvsge ?x4532 (bvadd (select ?x202 (_ bv20 32)) ?x14674)) (_ bv20 32) (ite (bvsge ?x4532 (bvadd (select ?x202 (_ bv19 32)) ?x10883)) (_ bv19 32) ?x34279))))
 (let ((?x88284 (ite (bvsle (_ bv25203 32) (bvadd (bvadd ?x66968 (bvsub (_ bv21 32) ?x58159)) (_ bv24003 32))) (_ bv4294967295 32) (_ bv0 32))))
 (let ((?x62705 (ite (bvsgt (_ bv22803 32) (bvadd (bvadd ?x66968 (bvsub (_ bv21 32) ?x58159)) (_ bv24003 32))) (_ bv1 32) ?x88284)))
 (let ((?x80603 (ite (bvsle (_ bv25203 32) (bvadd (bvadd ?x66968 (bvsub (_ bv22 32) ?x58159)) (_ bv24003 32))) (_ bv4294967295 32) (_ bv0 32))))
 (let ((?x73520 (ite (bvsgt (_ bv22803 32) (bvadd (bvadd ?x66968 (bvsub (_ bv22 32) ?x58159)) (_ bv24003 32))) (_ bv1 32) ?x80603)))
 (let ((?x25927 (ite (bvsge ?x4532 (bvadd (select ?x202 (_ bv22 32)) ?x73520)) (_ bv22 32) (ite (bvsge ?x4532 (bvadd (select ?x202 (_ bv21 32)) ?x62705)) (_ bv21 32) ?x45469))))
 (let ((?x29769 (ite (bvsle (_ bv25203 32) (bvadd (bvadd ?x66968 (bvsub (_ bv23 32) ?x58159)) (_ bv24003 32))) (_ bv4294967295 32) (_ bv0 32))))
 (let ((?x88277 (ite (bvsgt (_ bv22803 32) (bvadd (bvadd ?x66968 (bvsub (_ bv23 32) ?x58159)) (_ bv24003 32))) (_ bv1 32) ?x29769)))
 (let ((?x80752 (ite (bvsle (_ bv25203 32) (bvadd (bvadd ?x66968 (bvsub (_ bv24 32) ?x58159)) (_ bv24003 32))) (_ bv4294967295 32) (_ bv0 32))))
 (let ((?x35669 (ite (bvsgt (_ bv22803 32) (bvadd (bvadd ?x66968 (bvsub (_ bv24 32) ?x58159)) (_ bv24003 32))) (_ bv1 32) ?x80752)))
 (let ((?x81500 (ite (bvsge ?x4532 (bvadd (select ?x202 (_ bv24 32)) ?x35669)) (_ bv24 32) (ite (bvsge ?x4532 (bvadd (select ?x202 (_ bv23 32)) ?x88277)) (_ bv23 32) ?x25927))))
 (let ((?x55204 (ite (bvsle (_ bv25203 32) (bvadd (bvadd ?x66968 (bvsub (_ bv25 32) ?x58159)) (_ bv24003 32))) (_ bv4294967295 32) (_ bv0 32))))
 (let ((?x97442 (ite (bvsgt (_ bv22803 32) (bvadd (bvadd ?x66968 (bvsub (_ bv25 32) ?x58159)) (_ bv24003 32))) (_ bv1 32) ?x55204)))
 (let ((?x48887 (ite (bvsle (_ bv25203 32) (bvadd (bvadd ?x66968 (bvsub (_ bv26 32) ?x58159)) (_ bv24003 32))) (_ bv4294967295 32) (_ bv0 32))))
 (let ((?x97746 (ite (bvsgt (_ bv22803 32) (bvadd (bvadd ?x66968 (bvsub (_ bv26 32) ?x58159)) (_ bv24003 32))) (_ bv1 32) ?x48887)))
 (let ((?x62319 (ite (bvsge ?x4532 (bvadd (select ?x202 (_ bv26 32)) ?x97746)) (_ bv26 32) (ite (bvsge ?x4532 (bvadd (select ?x202 (_ bv25 32)) ?x97442)) (_ bv25 32) ?x81500))))
 (let ((?x5489 (ite (bvsle (_ bv25203 32) (bvadd (bvadd ?x66968 (bvsub (_ bv27 32) ?x58159)) (_ bv24003 32))) (_ bv4294967295 32) (_ bv0 32))))
 (let ((?x46309 (ite (bvsgt (_ bv22803 32) (bvadd (bvadd ?x66968 (bvsub (_ bv27 32) ?x58159)) (_ bv24003 32))) (_ bv1 32) ?x5489)))
 (let ((?x31997 (ite (bvsle (_ bv25203 32) (bvadd (bvadd ?x66968 (bvsub (_ bv28 32) ?x58159)) (_ bv24003 32))) (_ bv4294967295 32) (_ bv0 32))))
 (let ((?x70864 (ite (bvsgt (_ bv22803 32) (bvadd (bvadd ?x66968 (bvsub (_ bv28 32) ?x58159)) (_ bv24003 32))) (_ bv1 32) ?x31997)))
 (let ((?x1268 (ite (bvsge ?x4532 (bvadd (select ?x202 (_ bv28 32)) ?x70864)) (_ bv28 32) (ite (bvsge ?x4532 (bvadd (select ?x202 (_ bv27 32)) ?x46309)) (_ bv27 32) ?x62319))))
 (let ((?x12254 (ite (bvsle (_ bv25203 32) (bvadd (bvadd ?x66968 (bvsub (_ bv29 32) ?x58159)) (_ bv24003 32))) (_ bv4294967295 32) (_ bv0 32))))
 (let ((?x35805 (ite (bvsgt (_ bv22803 32) (bvadd (bvadd ?x66968 (bvsub (_ bv29 32) ?x58159)) (_ bv24003 32))) (_ bv1 32) ?x12254)))
 (let ((?x62425 (ite (bvsle (_ bv25203 32) (bvadd (bvadd ?x66968 (bvsub (_ bv30 32) ?x58159)) (_ bv24003 32))) (_ bv4294967295 32) (_ bv0 32))))
 (let ((?x77388 (ite (bvsgt (_ bv22803 32) (bvadd (bvadd ?x66968 (bvsub (_ bv30 32) ?x58159)) (_ bv24003 32))) (_ bv1 32) ?x62425)))
 (let ((?x83473 (ite (bvsge ?x4532 (bvadd (select ?x202 (_ bv30 32)) ?x77388)) (_ bv30 32) (ite (bvsge ?x4532 (bvadd (select ?x202 (_ bv29 32)) ?x35805)) (_ bv29 32) ?x1268))))
 (let ((?x7269 (ite (bvsle (_ bv25203 32) (bvadd (bvadd ?x66968 (bvsub (_ bv31 32) ?x58159)) (_ bv24003 32))) (_ bv4294967295 32) (_ bv0 32))))
 (let ((?x81867 (ite (bvsgt (_ bv22803 32) (bvadd (bvadd ?x66968 (bvsub (_ bv31 32) ?x58159)) (_ bv24003 32))) (_ bv1 32) ?x7269)))
 (let ((?x7499 (ite (bvsle (_ bv25203 32) (bvadd (bvadd ?x66968 (bvsub (_ bv32 32) ?x58159)) (_ bv24003 32))) (_ bv4294967295 32) (_ bv0 32))))
 (let ((?x7180 (ite (bvsgt (_ bv22803 32) (bvadd (bvadd ?x66968 (bvsub (_ bv32 32) ?x58159)) (_ bv24003 32))) (_ bv1 32) ?x7499)))
 (let ((?x45649 (ite (bvsge ?x4532 (bvadd (select ?x202 (_ bv32 32)) ?x7180)) (_ bv32 32) (ite (bvsge ?x4532 (bvadd (select ?x202 (_ bv31 32)) ?x81867)) (_ bv31 32) ?x83473))))
 (let ((?x63559 (ite (bvsle (_ bv25203 32) (bvadd (bvadd ?x66968 (bvsub (_ bv33 32) ?x58159)) (_ bv24003 32))) (_ bv4294967295 32) (_ bv0 32))))
 (let ((?x48412 (ite (bvsgt (_ bv22803 32) (bvadd (bvadd ?x66968 (bvsub (_ bv33 32) ?x58159)) (_ bv24003 32))) (_ bv1 32) ?x63559)))
 (let ((?x75478 (ite (bvsle (_ bv25203 32) (bvadd (bvadd ?x66968 (bvsub (_ bv34 32) ?x58159)) (_ bv24003 32))) (_ bv4294967295 32) (_ bv0 32))))
 (let ((?x85820 (ite (bvsgt (_ bv22803 32) (bvadd (bvadd ?x66968 (bvsub (_ bv34 32) ?x58159)) (_ bv24003 32))) (_ bv1 32) ?x75478)))
 (let ((?x38412 (ite (bvsge ?x4532 (bvadd (select ?x202 (_ bv34 32)) ?x85820)) (_ bv34 32) (ite (bvsge ?x4532 (bvadd (select ?x202 (_ bv33 32)) ?x48412)) (_ bv33 32) ?x45649))))
 (let ((?x58181 (ite (bvsle (_ bv25203 32) (bvadd (bvadd ?x66968 (bvsub (_ bv35 32) ?x58159)) (_ bv24003 32))) (_ bv4294967295 32) (_ bv0 32))))
 (let ((?x44071 (ite (bvsgt (_ bv22803 32) (bvadd (bvadd ?x66968 (bvsub (_ bv35 32) ?x58159)) (_ bv24003 32))) (_ bv1 32) ?x58181)))
 (let ((?x51826 (ite (bvsle (_ bv25203 32) (bvadd (bvadd ?x66968 (bvsub (_ bv36 32) ?x58159)) (_ bv24003 32))) (_ bv4294967295 32) (_ bv0 32))))
 (let ((?x54736 (ite (bvsgt (_ bv22803 32) (bvadd (bvadd ?x66968 (bvsub (_ bv36 32) ?x58159)) (_ bv24003 32))) (_ bv1 32) ?x51826)))
 (let ((?x605 (ite (bvsge ?x4532 (bvadd (select ?x202 (_ bv36 32)) ?x54736)) (_ bv36 32) (ite (bvsge ?x4532 (bvadd (select ?x202 (_ bv35 32)) ?x44071)) (_ bv35 32) ?x38412))))
 (let ((?x15945 (ite (bvsle (_ bv25203 32) (bvadd (bvadd ?x66968 (bvsub (_ bv37 32) ?x58159)) (_ bv24003 32))) (_ bv4294967295 32) (_ bv0 32))))
 (let ((?x97376 (ite (bvsgt (_ bv22803 32) (bvadd (bvadd ?x66968 (bvsub (_ bv37 32) ?x58159)) (_ bv24003 32))) (_ bv1 32) ?x15945)))
 (let ((?x28085 (ite (bvsle (_ bv25203 32) (bvadd (bvadd ?x66968 (bvsub (_ bv38 32) ?x58159)) (_ bv24003 32))) (_ bv4294967295 32) (_ bv0 32))))
 (let ((?x97439 (ite (bvsgt (_ bv22803 32) (bvadd (bvadd ?x66968 (bvsub (_ bv38 32) ?x58159)) (_ bv24003 32))) (_ bv1 32) ?x28085)))
 (let ((?x9441 (ite (bvsge ?x4532 (bvadd (select ?x202 (_ bv38 32)) ?x97439)) (_ bv38 32) (ite (bvsge ?x4532 (bvadd (select ?x202 (_ bv37 32)) ?x97376)) (_ bv37 32) ?x605))))
 (let ((?x2958 (ite (bvsle (_ bv25203 32) (bvadd (bvadd ?x66968 (bvsub (_ bv39 32) ?x58159)) (_ bv24003 32))) (_ bv4294967295 32) (_ bv0 32))))
 (let ((?x33626 (ite (bvsgt (_ bv22803 32) (bvadd (bvadd ?x66968 (bvsub (_ bv39 32) ?x58159)) (_ bv24003 32))) (_ bv1 32) ?x2958)))
 (let ((?x2181 (ite (bvsle (_ bv25203 32) (bvadd (bvadd ?x66968 (bvsub (_ bv40 32) ?x58159)) (_ bv24003 32))) (_ bv4294967295 32) (_ bv0 32))))
 (let ((?x96667 (ite (bvsgt (_ bv22803 32) (bvadd (bvadd ?x66968 (bvsub (_ bv40 32) ?x58159)) (_ bv24003 32))) (_ bv1 32) ?x2181)))
 (let ((?x49667 (ite (bvsge ?x4532 (bvadd (select ?x202 (_ bv40 32)) ?x96667)) (_ bv40 32) (ite (bvsge ?x4532 (bvadd (select ?x202 (_ bv39 32)) ?x33626)) (_ bv39 32) ?x9441))))
 (let ((?x70100 (ite (bvsle (_ bv25203 32) (bvadd (bvadd ?x66968 (bvsub (_ bv41 32) ?x58159)) (_ bv24003 32))) (_ bv4294967295 32) (_ bv0 32))))
 (let ((?x98865 (ite (bvsgt (_ bv22803 32) (bvadd (bvadd ?x66968 (bvsub (_ bv41 32) ?x58159)) (_ bv24003 32))) (_ bv1 32) ?x70100)))
 (let ((?x54892 (ite (bvsle (_ bv25203 32) (bvadd (bvadd ?x66968 (bvsub (_ bv42 32) ?x58159)) (_ bv24003 32))) (_ bv4294967295 32) (_ bv0 32))))
 (let ((?x7464 (ite (bvsgt (_ bv22803 32) (bvadd (bvadd ?x66968 (bvsub (_ bv42 32) ?x58159)) (_ bv24003 32))) (_ bv1 32) ?x54892)))
 (let ((?x13179 (ite (bvsge ?x4532 (bvadd (select ?x202 (_ bv42 32)) ?x7464)) (_ bv42 32) (ite (bvsge ?x4532 (bvadd (select ?x202 (_ bv41 32)) ?x98865)) (_ bv41 32) ?x49667))))
 (let ((?x97676 (ite (bvsle (_ bv25203 32) (bvadd (bvadd ?x66968 (bvsub (_ bv43 32) ?x58159)) (_ bv24003 32))) (_ bv4294967295 32) (_ bv0 32))))
 (let ((?x97416 (ite (bvsgt (_ bv22803 32) (bvadd (bvadd ?x66968 (bvsub (_ bv43 32) ?x58159)) (_ bv24003 32))) (_ bv1 32) ?x97676)))
 (let ((?x86320 (ite (bvsle (_ bv25203 32) (bvadd (bvadd ?x66968 (bvsub (_ bv44 32) ?x58159)) (_ bv24003 32))) (_ bv4294967295 32) (_ bv0 32))))
 (let ((?x33708 (ite (bvsgt (_ bv22803 32) (bvadd (bvadd ?x66968 (bvsub (_ bv44 32) ?x58159)) (_ bv24003 32))) (_ bv1 32) ?x86320)))
 (let ((?x54184 (ite (bvsge ?x4532 (bvadd (select ?x202 (_ bv44 32)) ?x33708)) (_ bv44 32) (ite (bvsge ?x4532 (bvadd (select ?x202 (_ bv43 32)) ?x97416)) (_ bv43 32) ?x13179))))
 (let ((?x67055 (ite (bvsle (_ bv25203 32) (bvadd (bvadd ?x66968 (bvsub (_ bv45 32) ?x58159)) (_ bv24003 32))) (_ bv4294967295 32) (_ bv0 32))))
 (let ((?x37480 (ite (bvsgt (_ bv22803 32) (bvadd (bvadd ?x66968 (bvsub (_ bv45 32) ?x58159)) (_ bv24003 32))) (_ bv1 32) ?x67055)))
 (let ((?x32587 (ite (bvsle (_ bv25203 32) (bvadd (bvadd ?x66968 (bvsub (_ bv46 32) ?x58159)) (_ bv24003 32))) (_ bv4294967295 32) (_ bv0 32))))
 (let ((?x55417 (ite (bvsgt (_ bv22803 32) (bvadd (bvadd ?x66968 (bvsub (_ bv46 32) ?x58159)) (_ bv24003 32))) (_ bv1 32) ?x32587)))
 (let ((?x58772 (ite (bvsge ?x4532 (bvadd (select ?x202 (_ bv46 32)) ?x55417)) (_ bv46 32) (ite (bvsge ?x4532 (bvadd (select ?x202 (_ bv45 32)) ?x37480)) (_ bv45 32) ?x54184))))
 (let ((?x29741 (ite (bvsle (_ bv25203 32) (bvadd (bvadd ?x66968 (bvsub (_ bv47 32) ?x58159)) (_ bv24003 32))) (_ bv4294967295 32) (_ bv0 32))))
 (let ((?x24881 (ite (bvsgt (_ bv22803 32) (bvadd (bvadd ?x66968 (bvsub (_ bv47 32) ?x58159)) (_ bv24003 32))) (_ bv1 32) ?x29741)))
 (let ((?x64310 (ite (bvsge ?x4532 (bvadd (select ?x202 (_ bv47 32)) ?x24881)) (_ bv47 32) ?x58772)))
 (let ((?x31993 (bvadd ?x66968 (bvsub ?x64310 ?x58159))))
 (let ((?x10747 (bvadd ?x31993 (_ bv24003 32))))
 (let ((?x98778 (bvadd (select ?x202 ?x64310) (ite (bvsgt (_ bv22803 32) ?x10747) (_ bv1 32) (ite (bvsle (_ bv25203 32) ?x10747) (_ bv4294967295 32) (_ bv0 32))))))
 (let ((?x98763 (bvsub ?x4532 ?x98778)))
 (let ((?x97805 (ite (or (= (_ bv22802 32) ?x10747) (= (_ bv25202 32) ?x10747)) (_ bv28 32) (select ?x108 ?x64310))))
 (let ((?x69948 (ite (= (_ bv1 32) (ite (bvsge ?x98763 ?x97805) (_ bv1 32) (_ bv0 32))) (bvsub ?x98763 ?x97805) ?x98763)))
 (and (= y_months (bvadd ?x31993 (ite (bvsge ?x98763 ?x97805) (_ bv1 32) (_ bv0 32)))) (= y_beta ?x69948))))))))))))))))))))))))))))))))))))))))))))))))))))))))))))))))))))))))))))))))))))))))))))))))))))))))))))))))))))))))))))))))))))))))))))))))))))))))))))))))))))))))))))))))))))))))))))))))))))))))
(assert
 (let (($x56638 (and (= y_months (bvsub (bvadd (bvmul (_ bv2023 32) (_ bv12 32)) (_ bv2 32)) (_ bv24003 32))) (= (_ bv23 32) y_beta))))
(not $x56638)))
(check-sat)
